p edge 96 117
e 6 1
e 8 1
e 54 1
e 76 1
e 85 1
e 56 2
e 75 3
e 19 4
e 16 5
e 17 5
e 20 5
e 40 5
e 93 5
e 8 6
e 45 6
e 54 6
e 89 6
e 61 7
e 28 8
e 38 8
e 39 8
e 42 8
e 54 8
e 72 8
e 54 9
e 89 9
e 95 9
e 54 10
e 45 11
e 56 11
e 94 11
e 15 12
e 24 13
e 75 13
e 41 14
e 50 14
e 21 15
e 33 15
e 93 15
e 84 18
e 54 19
e 96 21
e 53 22
e 65 22
e 68 22
e 51 23
e 28 25
e 89 26
e 53 27
e 32 28
e 78 28
e 93 28
e 54 29
e 68 29
e 72 29
e 64 30
e 45 31
e 55 31
e 58 31
e 93 34
e 45 35
e 54 36
e 54 37
e 54 38
e 50 39
e 59 40
e 93 40
e 66 41
e 81 41
e 88 41
e 45 43
e 74 43
e 72 44
e 56 45
e 58 45
e 74 45
e 75 45
e 79 45
e 83 45
e 89 46
e 54 47
e 73 48
e 87 48
e 93 48
e 70 49
e 77 50
e 54 51
e 56 51
e 72 51
e 74 51
e 56 52
e 57 53
e 64 53
e 70 53
e 61 54
e 67 54
e 89 54
e 92 54
e 93 54
e 72 56
e 80 56
e 90 56
e 74 60
e 72 61
e 95 61
e 72 62
e 95 63
e 81 64
e 89 64
e 91 65
e 75 66
e 72 69
e 79 71
e 93 72
e 89 82
e 89 84
e 89 86
